experiment/data/hgs-res/Vrp-Set-A-n46/Vrp-Set-A-n46-hgs/0.hgs1.vrp
NAME : 0
COMMENT : CVRP Instance
TYPE : CVRP
DIMENSION : 46
EDGE_WEIGHT_TYPE : EUC_2D
CAPACITY : 100
NODE_COORD_SECTION
1	75.0	55.0
2	7.0	75.0
3	77.0	1.0
4	51.0	25.0
5	81.0	25.0
6	59.0	37.0
7	93.0	45.0
8	43.0	21.0
9	35.0	53.0
10	77.0	63.0
11	37.0	13.0
12	37.0	51.0
13	27.0	31.0
14	95.0	31.0
15	87.0	43.0
16	23.0	65.0
17	9.0	51.0
18	73.0	81.0
19	3.0	1.0
20	41.0	61.0
21	29.0	81.0
22	51.0	95.0
23	49.0	25.0
24	81.0	53.0
25	7.0	51.0
26	21.0	5.0
27	91.0	35.0
28	17.0	81.0
29	61.0	69.0
30	27.0	97.0
31	83.0	23.0
32	21.0	93.0
33	59.0	31.0
34	27.0	53.0
35	9.0	91.0
36	11.0	27.0
37	59.0	41.0
38	67.0	1.0
39	77.0	39.0
40	47.0	29.0
41	3.0	89.0
42	33.0	87.0
43	17.0	45.0
44	91.0	41.0
45	23.0	3.0
46	97.0	61.0
DEMAND_SECTION
1	0
2	12
3	26
4	1
5	20
6	2
7	13
8	20
9	7
10	10
11	15
12	7
13	24
14	10
15	12
16	23
17	13
18	19
19	9
20	12
21	6
22	9
23	22
24	18
25	19
26	20
27	24
28	10
29	4
30	20
31	15
32	13
33	12
34	3
35	7
36	18
37	3
38	23
39	1
40	17
41	13
42	6
43	22
44	20
45	21
46	2
DEPOT_SECTION
1
-1
EOF
