experiment/data/hgs-res/Vrp-Set-A-n46/Vrp-Set-A-n46-hgs/0.hgs1.log
=========== Algorithm Parameters =================
---- nbGranular        is set to 20
---- mu                is set to 25
---- lambda            is set to 40
---- nbElite           is set to 4
---- nbClose           is set to 5
---- targetFeasible    is set to 0.2
---- seed              is set to 1234
---- nbIter            is set to 20000
---- timeLimit         is set to 0
---- useSwapStar       is set to 1
==================================================
----- READING INSTANCE: baseline_results/cvrp_hgs/Vrp-Set-A-n46/Vrp-Set-A-n46-hgs/0.hgs1.vrp
----- FLEET SIZE WAS NOT SPECIFIED: DEFAULT INITIALIZATION TO 11 VEHICLES
----- INSTANCE SUCCESSFULLY LOADED WITH 45 CLIENTS AND 11 VEHICLES
----- BUILDING INITIAL POPULATION
----- STARTING GENETIC ALGORITHM
It      0      2 | T(s) 0.04 | Feas 54 917.72 938.05 | Inf 9 934.89 959.41 | Div 0.32 0.47 | Feas 0.91 1.00 | Pen 3.76 0.85
It    500    502 | T(s) 0.21 | Feas 27 917.72 932.25 | Inf 43 914.02 919.55 | Div 0.40 0.31 | Feas 0.21 1.00 | Pen 1.96 0.38
It   1000   1002 | T(s) 0.37 | Feas 28 917.72 932.55 | Inf 26 902.92 916.18 | Div 0.41 0.40 | Feas 0.27 1.00 | Pen 1.45 0.17
It   1500   1502 | T(s) 0.54 | Feas 41 917.72 923.93 | Inf 62 911.52 915.69 | Div 0.28 0.25 | Feas 0.34 1.00 | Pen 1.77 0.10
It   2000   2002 | T(s) 0.70 | Feas 53 917.72 920.14 | Inf 64 911.98 914.65 | Div 0.16 0.21 | Feas 0.18 1.00 | Pen 1.81 0.10
It   2500   2502 | T(s) 0.85 | Feas 58 917.72 920.25 | Inf 51 912.45 917.11 | Div 0.18 0.24 | Feas 0.07 1.00 | Pen 1.84 0.10
It   3000   3002 | T(s) 1.01 | Feas 27 917.72 934.64 | Inf 31 907.73 916.76 | Div 0.43 0.38 | Feas 0.26 1.00 | Pen 1.60 0.10
It   3500   3502 | T(s) 1.16 | Feas 32 917.72 929.77 | Inf 54 901.83 911.09 | Div 0.38 0.28 | Feas 0.27 1.00 | Pen 1.41 0.10
It   4000   4002 | T(s) 1.32 | Feas 30 917.72 928.78 | Inf 48 903.65 909.78 | Div 0.37 0.25 | Feas 0.29 1.00 | Pen 1.47 0.10
It   4500   4502 | T(s) 1.48 | Feas 27 917.72 931.35 | Inf 49 911.42 916.15 | Div 0.41 0.29 | Feas 0.25 1.00 | Pen 1.76 0.10
It   5000   5002 | T(s) 1.64 | Feas 53 917.72 920.69 | Inf 56 905.55 912.41 | Div 0.18 0.27 | Feas 0.34 1.00 | Pen 1.53 0.10
It   5500   5502 | T(s) 1.80 | Feas 58 917.72 920.27 | Inf 64 912.83 917.33 | Div 0.15 0.20 | Feas 0.09 1.00 | Pen 1.87 0.10
It   6000   6002 | T(s) 1.96 | Feas 29 917.72 930.77 | Inf 38 907.53 915.08 | Div 0.40 0.33 | Feas 0.26 1.00 | Pen 1.59 0.10
It   6500   6502 | T(s) 2.11 | Feas 43 917.72 922.54 | Inf 30 908.54 916.45 | Div 0.23 0.38 | Feas 0.21 1.00 | Pen 1.62 0.10
It   7000   7002 | T(s) 2.27 | Feas 48 917.72 922.21 | Inf 55 908.54 911.79 | Div 0.22 0.21 | Feas 0.18 1.00 | Pen 1.62 0.10
It   7500   7502 | T(s) 2.43 | Feas 59 917.72 919.67 | Inf 39 908.54 914.29 | Div 0.13 0.30 | Feas 0.24 1.00 | Pen 1.62 0.10
It   8000   8002 | T(s) 2.58 | Feas 52 917.72 919.96 | Inf 39 910.44 916.14 | Div 0.17 0.29 | Feas 0.06 1.00 | Pen 1.69 0.10
It   8500   8502 | T(s) 2.74 | Feas 49 917.72 920.27 | Inf 39 910.44 915.21 | Div 0.16 0.29 | Feas 0.20 1.00 | Pen 1.69 0.10
It   9000   9002 | T(s) 2.89 | Feas 49 917.72 921.92 | Inf 65 910.44 912.12 | Div 0.23 0.19 | Feas 0.16 1.00 | Pen 1.69 0.10
It   9500   9502 | T(s) 3.04 | Feas 25 917.72 937.09 | Inf 37 910.88 917.28 | Div 0.45 0.35 | Feas 0.33 1.00 | Pen 1.72 0.10
It  10000  10002 | T(s) 3.20 | Feas 64 917.72 919.72 | Inf 29 910.88 918.81 | Div 0.16 0.38 | Feas 0.21 1.00 | Pen 1.72 0.10
It  10500  10502 | T(s) 3.36 | Feas 62 917.72 918.95 | Inf 53 910.88 913.89 | Div 0.11 0.23 | Feas 0.17 1.00 | Pen 1.72 0.10
It  11000  11002 | T(s) 3.51 | Feas 50 917.72 920.17 | Inf 40 911.33 916.02 | Div 0.16 0.29 | Feas 0.33 1.00 | Pen 1.76 0.10
It  11500  11502 | T(s) 3.67 | Feas 28 917.72 929.43 | Inf 61 911.33 913.96 | Div 0.39 0.21 | Feas 0.24 1.00 | Pen 1.76 0.10
It  12000  12002 | T(s) 3.83 | Feas 32 917.72 926.91 | Inf 47 911.33 916.12 | Div 0.36 0.28 | Feas 0.25 1.00 | Pen 1.76 0.10
It  12500  12502 | T(s) 3.99 | Feas 55 917.72 920.30 | Inf 39 911.33 917.43 | Div 0.15 0.33 | Feas 0.20 1.00 | Pen 1.76 0.10
It  13000  13002 | T(s) 4.15 | Feas 32 917.72 928.76 | Inf 62 912.25 917.79 | Div 0.36 0.29 | Feas 0.28 1.00 | Pen 1.83 0.10
It  13500  13502 | T(s) 4.30 | Feas 56 917.72 921.12 | Inf 55 912.73 917.08 | Div 0.17 0.21 | Feas 0.07 1.00 | Pen 1.86 0.10
It  14000  14002 | T(s) 4.45 | Feas 56 917.72 919.38 | Inf 32 913.21 919.93 | Div 0.14 0.34 | Feas 0.22 1.00 | Pen 1.90 0.10
It  14500  14502 | T(s) 4.61 | Feas 64 917.72 918.44 | Inf 59 909.36 913.05 | Div 0.10 0.23 | Feas 0.18 1.00 | Pen 1.65 0.10
It  15000  15002 | T(s) 4.77 | Feas 30 917.72 931.79 | Inf 46 909.36 913.41 | Div 0.39 0.26 | Feas 0.17 1.00 | Pen 1.65 0.10
It  15500  15502 | T(s) 4.93 | Feas 49 917.72 920.78 | Inf 55 901.46 908.03 | Div 0.20 0.23 | Feas 0.32 1.00 | Pen 1.40 0.10
It  16000  16002 | T(s) 5.09 | Feas 47 917.72 921.39 | Inf 45 910.79 915.94 | Div 0.21 0.30 | Feas 0.37 1.00 | Pen 1.71 0.10
It  16500  16502 | T(s) 5.25 | Feas 43 917.72 922.68 | Inf 34 911.24 917.56 | Div 0.25 0.35 | Feas 0.31 1.00 | Pen 1.75 0.10
It  17000  17002 | T(s) 5.41 | Feas 64 917.72 919.85 | Inf 60 911.24 912.47 | Div 0.13 0.15 | Feas 0.22 1.00 | Pen 1.75 0.10
It  17500  17502 | T(s) 5.58 | Feas 41 917.72 923.42 | Inf 50 911.69 915.29 | Div 0.27 0.23 | Feas 0.25 1.00 | Pen 1.78 0.10
It  18000  18002 | T(s) 5.73 | Feas 50 917.72 921.82 | Inf 43 912.63 917.76 | Div 0.23 0.30 | Feas 0.21 1.00 | Pen 1.86 0.10
It  18500  18502 | T(s) 5.89 | Feas 43 917.72 922.22 | Inf 28 913.60 922.37 | Div 0.24 0.41 | Feas 0.22 1.00 | Pen 1.93 0.10
It  19000  19002 | T(s) 6.05 | Feas 48 917.72 920.18 | Inf 51 909.15 913.38 | Div 0.18 0.26 | Feas 0.24 1.00 | Pen 1.64 0.10
It  19500  19502 | T(s) 6.21 | Feas 46 917.72 919.81 | Inf 29 902.57 915.91 | Div 0.15 0.40 | Feas 0.26 1.00 | Pen 1.42 0.10
----- GENETIC ALGORITHM FINISHED AFTER 20000 ITERATIONS. TIME SPENT: 6.36512
----- WRITING BEST SOLUTION IN : baseline_results/cvrp_hgs/Vrp-Set-A-n46/Vrp-Set-A-n46-hgs/0.hgs1.tour
