experiment/data/hgs-res/Vrp-Set-A-n46/Vrp-Set-A-n46-hgs/0.hgs1.tour
Route #1: 8 33 42 16 24 15 19
Route #2: 11 12 35 18 25 44
Route #3: 36 39 7 10 22 3 32 5
Route #4: 38 4 37 2 30 13
Route #5: 23
Route #6: 14 26 43 6 45 17 9
Route #7: 28 41 20 27 1 40 34 31 29 21
Cost 917.724
